NAME: tsp35_23
COMMENT: 35-tsp problem (Padberg/Rinaldi)
TYPE: TSP
DIMENSION: 35
EDGE_WEIGHT_TYPE : EUC_2D
NODE_COORD_SECTION
1 25 17
2 17 10
3 24 28
4 27 36
5 9 10
6 5 7
7 2 9
8 32 23
9 3 1
10 27 16
11 31 17
12 5 23
13 32 11
14 6 2
15 35 1
16 21 8
17 27 19
18 16 33
19 31 7
20 23 21
21 1 26
22 14 21
23 21 24
24 22 2
25 2 37
26 25 34
27 0 11
28 7 26
29 14 22
30 37 20
31 15 20
32 28 13
33 26 15
34 10 18
35 25 14
